WARNING: for repeatability, setting FPU to use double precision
============================[ Problem Statistics ]=============================
|                                                                             |
|  Number of variables:           100                                         |
|  Number of clauses:             449                                         |
|  Parse time:                   0.00 s                                       |
|  Eliminated clauses:           0.00 Mb                                      |
|  Simplification time:          0.00 s                                       |
|                                                                             |
============================[ Search Statistics ]==============================
| Conflicts |          ORIGINAL         |          LEARNT          | Progress |
|           |    Vars  Clauses Literals |    Limit  Clauses Lit/Cl |          |
===============================================================================
|       100 |      98      447     1357 |      163      100      7 |  0.020 % |
===============================================================================
restarts              : 2
conflicts             : 143            (64589 /sec)
decisions             : 191            (0.00 % random) (86269 /sec)
propagations          : 3628           (1638663 /sec)
conflict literals     : 969            (18.43 % deleted)
Memory used           : 13.00 MB
CPU time              : 0.002214 s

SATISFIABLE
